11
0 6 83 50 37 90 75 87 46 66 13 
46 0 51 20 30 51 38 39 14 34 40 
54 11 0 75 8 25 78 58 39 12 14 
54 5 25 0 87 21 89 28 45 20 58 
13 21 1 52 0 30 7 74 1 54 89 
12 94 1 18 72 0 12 77 26 45 23 
84 17 58 51 51 95 0 25 66 42 15 
72 3 77 27 42 64 15 0 22 74 34 
68 55 64 71 36 17 16 60 0 54 84 
95 44 22 47 15 65 55 6 10 0 70 
76 10 22 89 89 34 48 5 1 80 0 
